# Objective value = 1
s01 0
s02 0
s11 0
s12 0
s21 0
s22 0
s31 1
s32 0
s41 0
s42 0
s51 0
s52 0
x0 1
x1 1
x2 0
x3 0
x4 0
x5 1
x6 1
x7 0
x8 0
x9 0
x10 1
x11 0
x12 0
x13 0
x14 0
x15 1
x16 1
x17 1
x18 0
x19 0
x20 0
x21 1
x22 1
x23 1
x24 1
x25 0
x26 0
x27 1
x28 0
x29 0
x30 1
x31 1
x32 1
x33 0
x34 1
x35 1
x36 0
x37 1
x38 0
x39 1
x40 1
x41 1
x42 1
x43 1
x44 0
x45 0
x46 0
x47 1
x48 0
x49 0
